# Solution for model micodag
# Objective value = 7.1068978297704977e+00
s_0_1 0
s_1_0 0
s_1_3 0
s_3_1 0
s_1_4 0
s_4_1 2.2709870761395212e-01
s_2_3 0
s_3_2 1.4231965249328482e-01
s_2_5 7.2438919975915628e-01
s_5_2 0
s_3_4 0
s_4_3 0.426594617156419
s_4_5 0
s_5_4 0
s_4_6 0
s_6_4 6.9518220418024779e-01
s_4_7 0
s_7_4 6.8650627684604526e-01
s_5_6 0
s_6_5 1.3303454886652171e+00
s_0_0 9.8171657789697342e-01
s_1_1 5.7449514947433755e-01
s_2_2 3.2236493371067865e+00
s_3_3 5.9175032306991771e-01
s_4_4 7.0680009129575794e-01
s_5_5 1.3608455419967198e+00
s_6_6 1.7939034523680206e+00
s_7_7 1.8584499294250243e+00
Gamma_0_0 0.990816117095889
Gamma_0_1 0
Gamma_0_2 0
Gamma_0_3 0
Gamma_0_4 0
Gamma_0_5 0
Gamma_0_6 0
Gamma_0_7 0
Gamma_1_0 0
Gamma_1_1 7.5795458272533633e-01
Gamma_1_2 0
Gamma_1_3 0
Gamma_1_4 0
Gamma_1_5 0
Gamma_1_6 0
Gamma_1_7 0
Gamma_2_0 0
Gamma_2_1 0
Gamma_2_2 1.7954524045785192e+00
Gamma_2_3 0
Gamma_2_4 0
Gamma_2_5 -8.5111056846872546e-01
Gamma_2_6 0
Gamma_2_7 0
Gamma_3_0 0
Gamma_3_1 0
Gamma_3_2 3.7725277002731977e-01
Gamma_3_3 7.6925309428686617e-01
Gamma_3_4 0
Gamma_3_5 0
Gamma_3_6 0
Gamma_3_7 0
Gamma_4_0 0
Gamma_4_1 -4.7654874631453320e-01
Gamma_4_2 0
Gamma_4_3 6.5314211099608344e-01
Gamma_4_4 8.4071403657590915e-01
Gamma_4_5 0
Gamma_4_6 0
Gamma_4_7 0
Gamma_5_0 0
Gamma_5_1 0
Gamma_5_2 0
Gamma_5_3 0
Gamma_5_4 0
Gamma_5_5 1.1665528457797019e+00
Gamma_5_6 0
Gamma_5_7 0
Gamma_6_0 0
Gamma_6_1 0
Gamma_6_2 0
Gamma_6_3 0
Gamma_6_4 -8.3377587167070810e-01
Gamma_6_5 1.1534060380738511e+00
Gamma_6_6 1.3393668102383385e+00
Gamma_6_7 0
Gamma_7_0 0
Gamma_7_1 0
Gamma_7_2 0
Gamma_7_3 0
Gamma_7_4 -0.828556743286811
Gamma_7_5 0
Gamma_7_6 0
Gamma_7_7 1.3632497678067013e+00
psi_0 0
psi_1 2
psi_2 3
psi_3 2
psi_4 1
psi_5 4
psi_6 0
psi_7 0
g_0_0 0
g_0_1 0
g_0_2 0
g_0_3 0
g_0_4 0
g_0_5 0
g_0_6 0
g_0_7 0
g_1_0 0
g_1_1 0
g_1_2 0
g_1_3 0
g_1_4 0
g_1_5 0
g_1_6 0
g_1_7 0
g_2_0 0
g_2_1 0
g_2_2 0
g_2_3 0
g_2_4 0
g_2_5 1
g_2_6 0
g_2_7 0
g_3_0 0
g_3_1 0
g_3_2 1
g_3_3 0
g_3_4 0
g_3_5 0
g_3_6 0
g_3_7 0
g_4_0 0
g_4_1 1
g_4_2 0
g_4_3 1
g_4_4 0
g_4_5 0
g_4_6 0
g_4_7 0
g_5_0 0
g_5_1 0
g_5_2 0
g_5_3 0
g_5_4 0
g_5_5 0
g_5_6 0
g_5_7 0
g_6_0 0
g_6_1 0
g_6_2 0
g_6_3 0
g_6_4 1
g_6_5 1
g_6_6 0
g_6_7 0
g_7_0 0
g_7_1 0
g_7_2 0
g_7_3 0
g_7_4 1
g_7_5 0
g_7_6 0
g_7_7 0
T_0 1.8452629498497686e-02
T_1 5.5426362476754321e-01
T_2 -1.1705140523228010e+00
T_3 5.2467048463142874e-01
T_4 3.4700740936885666e-01
T_5 -3.0810622861528714e-01
T_6 -5.8439394522521582e-01
T_7 -6.1974276900134839e-01
